37 28 
52 92 
78 2 
81 63 
52 87 
54 10 
20 55 
53 47 
65 2 
67 73 
71 20 
55 35 
72 67 
84 85 
74 46 
38 64 
26 42 
56 56 
44 89 
20 48 
29 74 
10 1 
30 63 
0 47 
17 19 
72 89 
39 27 
24 11 
46 61 
48 20 
